c 
p cnf 117 194
14 -2 21 0
-21 19 -20 0
-10 -9 22 0
-22 -20 -7 0
-4 -5 23 0
-4 -5 -23 0
-9 -17 24 0
-24 -15 -3 0
-7 12 25 0
-25 20 26 0
-26 14 2 0
-11 -2 14 0
-2 -19 27 0
-2 -19 -27 0
20 28 29 0
20 28 -29 0
20 -28 29 0
20 -28 -29 0
4 -18 30 0
-30 19 17 0
-12 3 16 0
4 17 8 0
-9 -8 31 0
-9 -8 -31 0
4 32 33 0
4 32 -33 0
4 -32 33 0
4 -32 -33 0
-5 -8 34 0
-5 -8 -34 0
-14 -7 35 0
-35 -20 -15 0
-10 5 36 0
-36 7 37 0
-37 4 1 0
5 -7 38 0
5 -7 -38 0
18 -15 39 0
18 -15 -39 0
14 13 40 0
14 13 -40 0
-20 7 41 0
-41 19 -15 0
14 -9 3 0
-20 42 43 0
-20 42 -43 0
-20 -42 43 0
-20 -42 -43 0
16 14 17 0
17 14 44 0
-44 9 45 0
-45 -10 20 0
3 -20 -19 0
-1 46 47 0
-1 46 -47 0
-1 -46 47 0
-1 -46 -47 0
-15 -19 48 0
-48 12 49 0
-49 -18 9 0
9 50 51 0
9 50 -51 0
9 -50 51 0
9 -50 -51 0
-10 52 53 0
-10 52 -53 0
-10 -52 53 0
-10 -52 -53 0
14 4 -13 0
-15 -9 54 0
-15 -9 -54 0
14 16 55 0
-55 -11 56 0
-56 1 7 0
-5 -17 -2 0
-8 57 58 0
-8 57 -58 0
-8 -57 58 0
-8 -57 -58 0
17 -13 59 0
-59 -9 60 0
-60 -20 6 0
18 20 61 0
-61 13 62 0
-62 -10 17 0
8 -14 63 0
8 -14 -63 0
-5 -19 64 0
-64 8 65 0
-65 12 -14 0
-16 -15 66 0
-66 -20 67 0
-67 -17 7 0
5 68 69 0
5 68 -69 0
5 -68 69 0
5 -68 -69 0
10 19 70 0
-70 5 15 0
-17 1 71 0
-71 -18 72 0
-72 -4 -13 0
2 11 73 0
2 11 -73 0
7 -19 74 0
-74 20 -1 0
2 14 11 0
19 15 5 0
4 -5 75 0
4 -5 -75 0
17 -1 76 0
17 -1 -76 0
6 77 78 0
6 77 -78 0
6 -77 78 0
6 -77 -78 0
-1 -19 79 0
-79 20 80 0
-80 8 2 0
-7 81 82 0
-7 81 -82 0
-7 -81 82 0
-7 -81 -82 0
2 20 83 0
-83 -11 -3 0
-12 -19 84 0
-84 4 85 0
-85 3 11 0
-6 86 87 0
-6 86 -87 0
-6 -86 87 0
-6 -86 -87 0
4 3 88 0
-88 17 89 0
-89 -19 13 0
-20 12 90 0
-20 12 -90 0
-4 -16 91 0
-91 18 19 0
-8 92 93 0
-8 92 -93 0
-8 -92 93 0
-8 -92 -93 0
6 -17 94 0
-94 12 95 0
-95 11 -3 0
1 19 96 0
-96 17 -16 0
-16 11 8 0
-15 17 97 0
-15 17 -97 0
-5 9 98 0
-5 9 -98 0
7 -18 -5 0
-6 -12 99 0
-6 -12 -99 0
18 -15 100 0
-100 7 9 0
3 101 102 0
3 101 -102 0
3 -101 102 0
3 -101 -102 0
-1 2 7 0
-20 -4 103 0
-103 -13 104 0
-104 -9 -19 0
11 20 105 0
-105 16 14 0
-11 -18 106 0
-11 -18 -106 0
19 -1 -5 0
-11 -16 107 0
-107 -9 18 0
-8 108 109 0
-8 108 -109 0
-8 -108 109 0
-8 -108 -109 0
-2 -11 15 0
-7 2 110 0
-110 -4 10 0
13 111 112 0
13 111 -112 0
13 -111 112 0
13 -111 -112 0
16 1 113 0
16 1 -113 0
-15 114 115 0
-15 114 -115 0
-15 -114 115 0
-15 -114 -115 0
-8 116 117 0
-8 116 -117 0
-8 -116 117 0
-8 -116 -117 0
